0,100,2200,310,1500,820,1010,230,430;100,0,80,52,250,45,102,45,55;2200,80,0,140,800,330,1030,330,340;310,52,140,0,60,23,104,87,78;1500,250,800,60,0,880,1050,660,330;820,45,330,22,880,0,106,88,12;1010,102,1030,104,1050,106,0,99,86;230,45,330,87,660,88,99,0,56;430,55,340,78,330,12,86,56,0;